29165
0 0 1 0 1 0 1 0 1 0 0 1 0 1 0 0 0 1 1 1 1 1 0 1 1 1 0 1 1 0
18 19 21 27 2 6 21 27 18 28 4 28 23 13 28 18 13 8 27 24 18 21 2 24 23 18 27 19 4 2 6 19 4 21 27 6 20 8 24 21 18 8 6 4 8 19 13 21 19 20 24 24 24 21 8 6 11 8 18 25 4 17 18 8 13 11 2 19 28 25 18 6 19 20 23 13 20 23 8 24 23 17 8 25 4 13 6 2 27 25 28 6 25 25 2 13 11 6 17 28 28 21 25 18 4 17 4 24 27 13 19 4 27 6 11 8 28 25 17 8 20 11 28 19 4 21 2 11 19 17 28 24 25 20 23 8 13 13 28 20 11 27 11 11 25 2 24 21 27 25 24 17 23 17 8 11 2 21 13 13 23 27 23 17 23 27 2 4 13 21 13 20 19 20 4 2 28 20 4 20 21 21 24 6 11 8 28 23 17 17 2 21 6 6 25 6 25 21 23 19
